num_tasks=7;
num_machines=3;
comp_cost=[|0, 0, 0, 
|65, 84, 124,
|113, 64, 135,
|90, 118, 118,
|120, 141, 67,
|64, 72, 101,
|0, 0, 0|];
comm_cost=[|0,0,0,0,0,0,0,
|0,0,71,93,0,0,0,
|0,0,0,0,119,0,0,
|0,0,0,0,77,0,0,
|0,0,0,0,0,56,0,
|0,0,0,0,0,0,0,
|0,0,0,0,0,0,0|];
max_time=10000;
